%mem=4GB
%nprocshared=4
%chk=model_H1.chk
# opt=z-matrix 6-311++g(d,p) m062x

test

0 1
 C              
 C                  1            B1
 C                  2            B2    1            A1
 C                  3            B3    2            A2    1            D1    0
 C                  4            B4    3            A3    2            D2    0
 C                  1            B5    2            A4    3            D3    0
 F                  1            B6    2            A5    3            D4    0
 H                  2            B7    1            A6    6            D5    0
 H                  3            B8    2            A7    1            D6    0
 H                  4            B9    3            A8    2            D7    0
 H                  5           B10    4            A9    3            D8    0
 H                  6           B11    1           A10    2            D9    0
 O                  1           B12    2           A11    3           D10    0
 C                 13           B13    1           A12    2           D11    0
 H                 14           B14   13           A13    1           D12    0
 H                 14           B15   13           A14    1           D13    0
 H                  7           B16    1           A15    2           D14    0
 N                 17           B17    7           A16    1           D15    0
 C                 18           B18   17           A17    7           D16    0
 O                 19           B19   18           A18   17           D17    0
 C                 18           B20   17           A19   19           D18    0
 H                 21           B21   18           A20   17           D19    0
 H                 21           B22   18           A21   17           D20    0
 H                 21           B23   18           A22   17           D21    0
 H                 19           B24   18           A23   17           D22    0

   B1             1.30000000
   B2             1.30000000
   B3             1.30000000
   B4             1.30000000
   B5             1.30000000
   B6             1.40000000
   B7             1.00000000
   B8             1.00000000
   B9             1.00000000
   B10            1.00000000
   B11            1.00100706
   B12            4.20000000
   B13            1.19999999
   B14            1.00000000
   B15            1.00000000
   B16            2.12000000
   B17            1.00000000
   B18            1.33000000
   B19            1.23000000
   B20            1.45000000
   B21            1.00000000
   B22            1.00000000
   B23            1.00000000
   B24            1.00000000

   A1           120.00000011
   A2           120.00000000
   A3           119.99999989
   A4           119.97770821
   A5           119.99999990
   A6           120.00000011
   A7           120.00000011
   A8           120.00000000
   A9           120.00000011
   A10          119.91553063
   A11          119.99999990
   A12          179.90000005
   A13          119.99996989
   A14          119.99996989
   A15          100.00000001
   A16          179.90000000
   A17          119.50000000
   A18          123.20000000
   A19          121.90000000
   A20          110.70000000
   A21          110.70000000
   A22          110.70000000
   A23          113.46721803
   D1             0.00000000
   D2             0.00000000
   D3             1.71722694
   D4          -180.00000000
   D5          -178.28277306
   D6           180.00000000
   D7           180.00000000
   D8           180.00000000
   D9          -177.77151684
   D10         -180.00000000
   D11          180.00000000
   D12          -90.04490481
   D13           90.04490481
   D14           90.00000000
   D15           90.00000000
   D16            0.00000000
   D17         -180.00000000
   D18         -180.00000000
   D19         -180.00000000
   D20          -60.00000000
   D21          60.00000000
   D22           -0.00000000

